Route #1: 47 28 30 37 29 44 46 51
Route #2: 9 7 17 41 52 13 21
Route #3: 38 18 40 35 31 33
Route #4: 8 27 6 20
Route #5: 39 3 5 14 34 11 24 25
Route #6: 1 2 36 23 19 15 32 16 48 42 4
Route #7: 10 26 49 50 43 45 12 22
cost 1175.05322265625